(declare-fun M () Int)
(declare-fun N () Int)
(declare-fun k () Int)

(assert (and
  (forall ((i_dot_0 Int) (j_0 Int) (j_1 Int))
    (or
      (not (<= i_dot_0 (+ M (- 1))))
      (not (<= 0 i_dot_0))
      (not (<= j_1 (+ N (- 1))))
      (not (<= (+ k 2) j_1))
      (not (<= j_0 (+ N (- 1))))
      (not (<= (+ k 1) j_0))
      (not (= j_0 j_1))
    )
  )
  (forall ((i_nrm_1 Int))
    (or
      (not (<= i_nrm_1 (+ M (- 1))))
      (not (= k (+ k 1)))
      (not (<= 0 i_nrm_1))
    )
  )
  (and
    (<= 0 k)
    (<= 1 (+ M (- 1)))
    (<= (+ k 2) (+ N (- 1)))
    (<= 1 (+ N (- 1)))
    (<= (+ k 1) (+ N (- 1)))
  )
  (forall ((i_dot_0 Int) (i_sub_1 Int) (j_0 Int) (j_1 Int))
    (or
      (not (<= i_dot_0 (+ M (- 1))))
      (not (<= i_sub_1 (+ M (- 1))))
      (not (<= 0 i_dot_0))
      (not (<= j_1 (+ N (- 1))))
      (not (<= (+ k 2) j_1))
      (not (= i_dot_0 i_sub_1))
      (not (<= j_0 (+ N (- 1))))
      (not (<= (+ k 1) j_0))
      (not (<= 0 i_sub_1))
      (not (= j_0 j_1))
    )
  )
  (forall ((i_nrm_0 Int))
    (or
      (not (<= i_nrm_0 (+ M (- 1))))
      (not (= k (+ k 1)))
      (not (<= 0 i_nrm_0))
    )
  )
  (forall ((j_0 Int))
    (or
      (not (<= j_0 (+ N (- 1))))
      (not (<= (+ k 1) j_0))
      (not (= k (+ k 1)))
      (not (= j_0 (+ k 1)))
    )
  )
  (forall ((i_nrm_0 Int) (i_nrm_1 Int))
    (or
      (not (= k (+ k 1)))
      (not (<= 0 i_nrm_1))
      (not (<= i_nrm_1 (+ M (- 1))))
      (not (<= 0 i_nrm_0))
      (not (<= i_nrm_0 (+ M (- 1))))
    )
  )
  (forall ((i_q_1 Int) (j_0 Int))
    (or
      (not (<= 0 i_q_1))
      (not (= k (+ k 1)))
      (not (= j_0 (+ k 1)))
      (not (<= j_0 (+ N (- 1))))
      (not (<= (+ k 1) j_0))
      (not (<= i_q_1 (+ M (- 1))))
    )
  )
  (not (= k (+ k 1)))
  (forall ((j_0 Int) (j_1 Int))
    (or
      (not (= k (+ k 1)))
      (not (<= j_1 (+ N (- 1))))
      (not (<= (+ k 2) j_1))
      (not (<= j_0 (+ N (- 1))))
      (not (<= (+ k 1) j_0))
      (not (= j_0 j_1))
    )
  )
  (forall ((i_nrm_0 Int) (i_sub_1 Int) (j_1 Int))
    (or
      (not (<= i_sub_1 (+ M (- 1))))
      (not (<= j_1 (+ N (- 1))))
      (not (<= (+ k 2) j_1))
      (not (<= 0 i_nrm_0))
      (not (<= i_nrm_0 (+ M (- 1))))
      (not (<= 0 i_sub_1))
      (not (= i_nrm_0 i_sub_1))
      (not (= k j_1))
    )
  )
  (forall ((i_sub_0 Int) (j_0 Int))
    (or
      (not (= k (+ k 1)))
      (not (= j_0 (+ k 1)))
      (not (<= i_sub_0 (+ M (- 1))))
      (not (<= j_0 (+ N (- 1))))
      (not (<= (+ k 1) j_0))
      (not (<= 0 i_sub_0))
    )
  )
  (forall ((i_q_1 Int))
    (or
      (not (<= 0 i_q_1))
      (not (= k (+ k 1)))
      (not (<= i_q_1 (+ M (- 1))))
    )
  )
  (forall ((j_1 Int))
    (or
      (not (<= (+ k 2) j_1))
      (not (= k (+ k 1)))
      (not (<= j_1 (+ N (- 1))))
      (not (= k j_1))
    )
  )
  (forall ((i_q_1 Int) (i_sub_0 Int) (j_0 Int))
    (or
      (not (<= 0 i_q_1))
      (not (<= i_sub_0 (+ M (- 1))))
      (not (<= j_0 (+ N (- 1))))
      (not (<= (+ k 1) j_0))
      (not (<= 0 i_sub_0))
      (not (<= i_q_1 (+ M (- 1))))
      (and
        (or
          (not (= i_sub_0 i_q_1))
          (not (= j_0 (+ k 1)))
        )
        (or
          (not (= i_sub_0 i_q_1))
          (not (= k (+ k 1)))
        )
      )
    )
  )
  (forall ((i_sub_1 Int) (j_1 Int))
    (or
      (not (<= i_sub_1 (+ M (- 1))))
      (not (= k (+ k 1)))
      (not (<= j_1 (+ N (- 1))))
      (not (<= (+ k 2) j_1))
      (not (<= 0 i_sub_1))
      (not (= k j_1))
    )
  )
  (forall ((i_sub_0 Int) (j_0 Int) (j_1 Int))
    (or
      (not (= k (+ k 1)))
      (not (<= j_1 (+ N (- 1))))
      (not (<= (+ k 2) j_1))
      (not (<= i_sub_0 (+ M (- 1))))
      (not (<= j_0 (+ N (- 1))))
      (not (<= (+ k 1) j_0))
      (not (<= 0 i_sub_0))
      (not (= j_0 j_1))
    )
  )
  (forall ((i_q_0 Int))
    (or
      (not (<= i_q_0 (+ M (- 1))))
      (not (= k (+ k 1)))
      (not (<= 0 i_q_0))
    )
  )
  (forall ((i_dot_1 Int) (i_q_0 Int) (j_1 Int))
    (or
      (not (= k (+ k 1)))
      (not (<= j_1 (+ N (- 1))))
      (not (<= 0 i_q_0))
      (not (<= i_q_0 (+ M (- 1))))
      (not (<= (+ k 2) j_1))
      (not (<= 0 i_dot_1))
      (not (= i_q_0 i_dot_1))
      (not (<= i_dot_1 (+ M (- 1))))
    )
  )
  (forall ((i_sub_0 Int) (i_sub_1 Int) (j_0 Int) (j_1 Int))
    (or
      (not (= i_sub_0 i_sub_1))
      (not (<= i_sub_1 (+ M (- 1))))
      (not (<= j_1 (+ N (- 1))))
      (not (<= (+ k 2) j_1))
      (not (<= i_sub_0 (+ M (- 1))))
      (not (<= j_0 (+ N (- 1))))
      (not (<= (+ k 1) j_0))
      (not (<= 0 i_sub_0))
      (not (<= 0 i_sub_1))
      (not (= j_0 j_1))
    )
  )
  (forall ((i_dot_1 Int) (i_sub_0 Int) (j_0 Int) (j_1 Int))
    (or
      (not (<= j_1 (+ N (- 1))))
      (not (<= (+ k 2) j_1))
      (not (<= i_sub_0 (+ M (- 1))))
      (not (<= j_0 (+ N (- 1))))
      (not (<= (+ k 1) j_0))
      (not (<= 0 i_sub_0))
      (not (<= 0 i_dot_1))
      (not (<= i_dot_1 (+ M (- 1))))
      (not (= i_sub_0 i_dot_1))
      (not (= j_0 j_1))
    )
  )
  (forall ((i_nrm_1 Int) (i_sub_0 Int) (j_0 Int))
    (or
      (not (<= 0 i_nrm_1))
      (not (<= i_nrm_1 (+ M (- 1))))
      (not (= j_0 (+ k 1)))
      (not (<= i_sub_0 (+ M (- 1))))
      (not (<= j_0 (+ N (- 1))))
      (not (<= (+ k 1) j_0))
      (not (<= 0 i_sub_0))
      (not (= i_sub_0 i_nrm_1))
    )
  )
  (forall ((i_q_0 Int) (j_1 Int))
    (or
      (not (= k (+ k 1)))
      (not (<= j_1 (+ N (- 1))))
      (not (<= 0 i_q_0))
      (not (<= i_q_0 (+ M (- 1))))
      (not (<= (+ k 2) j_1))
      (not (= k j_1))
    )
  )
  (forall ((i_dot_1 Int) (j_0 Int) (j_1 Int))
    (or
      (not (<= j_1 (+ N (- 1))))
      (not (<= (+ k 2) j_1))
      (not (<= 0 i_dot_1))
      (not (<= j_0 (+ N (- 1))))
      (not (<= (+ k 1) j_0))
      (not (<= i_dot_1 (+ M (- 1))))
      (not (= j_0 j_1))
    )
  )
  (forall ((i_dot_0 Int) (i_dot_1 Int) (j_0 Int) (j_1 Int))
    (or
      (not (<= i_dot_0 (+ M (- 1))))
      (not (<= 0 i_dot_0))
      (not (<= j_1 (+ N (- 1))))
      (not (<= (+ k 2) j_1))
      (not (<= 0 i_dot_1))
      (not (<= j_0 (+ N (- 1))))
      (not (<= (+ k 1) j_0))
      (not (<= i_dot_1 (+ M (- 1))))
      (not (= j_0 j_1))
    )
  )
  (forall ((i_sub_1 Int) (j_0 Int) (j_1 Int))
    (or
      (not (<= i_sub_1 (+ M (- 1))))
      (not (= k (+ k 1)))
      (not (<= j_1 (+ N (- 1))))
      (not (<= (+ k 2) j_1))
      (not (<= j_0 (+ N (- 1))))
      (not (<= (+ k 1) j_0))
      (not (<= 0 i_sub_1))
      (not (= j_0 j_1))
    )
  )
  (forall ((i_dot_0 Int) (i_q_1 Int) (j_0 Int))
    (or
      (not (<= 0 i_q_1))
      (not (<= i_dot_0 (+ M (- 1))))
      (not (<= 0 i_dot_0))
      (not (= k (+ k 1)))
      (not (= i_dot_0 i_q_1))
      (not (<= j_0 (+ N (- 1))))
      (not (<= (+ k 1) j_0))
      (not (<= i_q_1 (+ M (- 1))))
    )
  )
  (forall ((i_q_0 Int) (i_sub_1 Int) (j_1 Int))
    (or
      (not (<= i_sub_1 (+ M (- 1))))
      (not (<= j_1 (+ N (- 1))))
      (not (<= 0 i_q_0))
      (not (<= i_q_0 (+ M (- 1))))
      (not (<= (+ k 2) j_1))
      (and
        (or
          (not (= k j_1))
          (not (= i_q_0 i_sub_1))
        )
        (or
          (not (= k (+ k 1)))
          (not (= i_q_0 i_sub_1))
        )
      )
      (not (<= 0 i_sub_1))
    )
  )
  (forall ((i_q_0 Int) (i_q_1 Int))
    (or
      (not (<= 0 i_q_1))
      (not (= k (+ k 1)))
      (not (<= 0 i_q_0))
      (not (<= i_q_0 (+ M (- 1))))
      (not (= i_q_0 i_q_1))
      (not (<= i_q_1 (+ M (- 1))))
    )
  )
  (forall ((j_0 Int) (j_1 Int))
    (or
      (not (<= j_1 (+ N (- 1))))
      (not (<= (+ k 2) j_1))
      (not (<= j_0 (+ N (- 1))))
      (not (<= (+ k 1) j_0))
      (not (= j_0 j_1))
    )
  )
))

(check-sat)